; benchmark generated from python API
(set-info :status unknown)
(declare-fun S_3 () Real)
(declare-fun L_3 () Real)
(declare-fun A_3 () Real)
(declare-fun L_1 () Real)
(declare-fun S_1 () Real)
(declare-fun A_1 () Real)
(declare-fun L_0 () Real)
(declare-fun S_0 () Real)
(declare-fun A_0 () Real)
(declare-fun S_5 () Real)
(declare-fun A_5 () Real)
(declare-fun S_4 () Real)
(declare-fun A_4 () Real)
(declare-fun L_2 () Real)
(declare-fun S_2 () Real)
(declare-fun A_2 () Real)
(declare-fun B () Real)
(assert
 (let (($x39 (>= L_0 0.0)))
 (let (($x664 (>= B 5.0)))
 (let (($x1031 (<= (+ A_4 (* (- 1.0) S_5) (* (- 1.0) L_3)) 0.0)))
 (let (($x148236 (or $x1031 (<= (+ (* (- 3.0) S_5) (* 4.0 S_3) (* (- 1.0) S_1)) 0.0))))
 (let (($x146879 (or $x1031 (<= (+ (* (- 2.0) S_5) (* 3.0 S_3) (* (- 1.0) S_2)) 0.0))))
 (let (($x21964 (<= (+ (* (/ 1.0 2.0) A_2) (* (- (/ 1.0 2.0)) S_5) (* (- (/ 1.0 2.0)) L_2)) (- 5.0))))
 (let (($x1730 (<= (+ A_3 (* (- 1.0) S_5) (* (- 1.0) L_3)) (- 5.0))))
 (let (($x172519 (or $x1031 $x1730 $x21964 (<= (+ (* (/ 1.0 3.0) A_1) (* (- (/ 1.0 3.0)) L_1) (* (- (/ 1.0 3.0)) S_5)) (- 5.0)) (<= (+ (* (- (/ 1.0 4.0)) S_5) (* (/ 1.0 4.0) S_0)) (- 5.0)))))
 (let ((?x7248 (* (/ 4.0 3.0) L_3)))
 (let ((?x17487 (* (/ 1.0 3.0) S_0)))
 (let ((?x7247 (* (/ 1.0 3.0) B)))
 (let ((?x31259 (* (- (/ 4.0 3.0)) A_3)))
 (let ((?x465 (* (- 1.0) A_5)))
 (let (($x87989 (<= (+ A_4 ?x465 ?x31259 S_5 ?x7247 ?x17487 ?x7248) 0.0)))
 (let ((?x1792 (* 3.0 L_3)))
 (let ((?x1791 (* 2.0 S_5)))
 (let ((?x600 (* (- 1.0) L_1)))
 (let ((?x1790 (* (- 3.0) A_3)))
 (let ((?x1495 (* (- 2.0) A_5)))
 (let ((?x1511 (* 2.0 A_4)))
 (let (($x50633 (<= (+ ?x1511 ?x1495 ?x1790 A_1 ?x600 ?x1791 B ?x1792) 0.0)))
 (let ((?x4472 (* 2.0 L_3)))
 (let ((?x587 (* (- 1.0) L_2)))
 (let ((?x3211 (* (- 2.0) A_3)))
 (let (($x10191 (<= (+ A_4 ?x465 ?x3211 A_2 S_5 ?x587 B ?x4472) 0.0)))
 (let (($x76 (= L_3 L_2)))
 (let (($x120301 (<= (+ (* (- 1.0) A_4) (* (- 1.0) A_3) S_5 ?x4472 S_2 B) 0.0)))
 (let (($x141190 (or $x1031 (<= (+ (* (- 4.0) S_5) (* 5.0 S_3) (* (- 1.0) S_0)) 0.0))))
 (let ((?x1145 (* (- 1.0) S_0)))
 (let ((?x1205 (* (- 2.0) L_3)))
 (let ((?x656 (* (- 2.0) S_5)))
 (let ((?x1645 (* 2.0 A_3)))
 (let (($x389329 (or $x1031 (<= (+ ?x1645 ?x656 ?x1205 S_1 ?x1145) 0.0) (<= (+ (* (- (/ 2.0 3.0)) S_5) (* (/ 5.0 3.0) S_1) ?x1145) 0.0) (<= (+ A_2 (* (- 1.0) S_5) ?x587 S_1 ?x1145) 0.0))))
 (let (($x109647 (<= (+ (* (- 2.0) A_4) (* (- 1.0) A_3) A_1 ?x1791 ?x1792 ?x600 B) 0.0)))
 (let (($x68596 (<= (+ (* (- 1.0) A_4) (* (- (/ 1.0 3.0)) A_3) S_5 ?x7248 ?x17487 ?x7247) 0.0)))
 (let (($x21840 (<= (+ (* (- 1.0) A_4) (* (- 1.0) A_3) A_2 S_5 ?x4472 ?x587 B) 0.0)))
 (let ((?x1115 (* (- 2.0) L_2)))
 (let ((?x481 (* (- 1.0) A_1)))
 (let ((?x1114 (* 2.0 A_2)))
 (let ((?x473 (* (- 1.0) A_3)))
 (let (($x174094 (or $x76 $x10191 (not (<= (+ ?x473 ?x1114 ?x481 ?x1115 B L_1 L_3) 0.0)) $x87989)))
 (let ((?x4250 (* (- 5.0) B)))
 (let ((?x60448 (* (- 5.0) L_3)))
 (let ((?x16632 (* (- 4.0) S_5)))
 (let ((?x12767 (* 5.0 A_3)))
 (let ((?x1529 (* (- 3.0) B)))
 (let ((?x1643 (* (- 3.0) L_3)))
 (let ((?x522 (* (- 1.0) S_2)))
 (let ((?x1642 (* 3.0 A_3)))
 (let ((?x4233 (* (- 4.0) B)))
 (let ((?x11030 (* (- 4.0) L_3)))
 (let ((?x533 (* (- 1.0) S_1)))
 (let ((?x12204 (* (- 3.0) S_5)))
 (let ((?x12110 (* 4.0 A_3)))
 (let (($x144570 (or $x1031 (<= (+ ?x1645 ?x656 ?x1205 S_2 ?x533) 0.0) (<= (+ (* (- 1.0) S_5) (* 2.0 S_2) ?x533) 0.0))))
 (let ((?x26504 (* (/ 3.0 2.0) L_3)))
 (let ((?x6169 (* (/ 1.0 2.0) S_1)))
 (let ((?x2758 (* (/ 1.0 2.0) B)))
 (let ((?x9439 (* (- (/ 3.0 2.0)) A_3)))
 (let (($x143094 (or $x76 (<= (+ ?x1790 ?x1792 (* 4.0 S_2) ?x1145 (* 3.0 B)) 0.0))))
 (let (($x47980 (<= (+ A_4 ?x465 ?x473 (* (- 1.0) A_2) A_1 S_5 L_3 ?x600 L_2) 0.0)))
 (let ((?x10563 (* (/ 1.0 2.0) L_2)))
 (let ((?x1832 (* (/ 1.0 2.0) S_0)))
 (let ((?x2753 (* (- (/ 1.0 2.0)) B)))
 (let ((?x10560 (* (- (/ 1.0 2.0)) A_2)))
 (let (($x66 (= L_2 L_1)))
 (let (($x373594 (or $x66 (<= (+ A_4 ?x465 ?x473 ?x10560 S_5 L_3 ?x2753 ?x1832 ?x10563) 0.0) $x47980)))
 (let (($x10565 (<= (+ ?x473 ?x10560 L_3 S_4 ?x1832 ?x10563 ?x2758) 0.0)))
 (let (($x9117 (<= (+ ?x473 (* (- 1.0) A_2) A_1 L_3 S_4 ?x600 L_2 B) 0.0)))
 (let ((?x1153 (* 3.0 L_2)))
 (let ((?x2266 (* 3.0 B)))
 (let ((?x1137 (* (- 2.0) L_1)))
 (let ((?x1136 (* 2.0 A_1)))
 (let ((?x1152 (* (- 3.0) A_2)))
 (let (($x13994 (<= (+ ?x1152 ?x1136 ?x1137 ?x2266 S_4 ?x1153) 0.0)))
 (let (($x106497 (<= (+ (* (- 1.0) A_4) (* (- (/ 1.0 2.0)) A_3) S_5 ?x26504 ?x6169 ?x2758) 0.0)))
 (let (($x1033 (<= (+ (* (- 1.0) A_4) (* (- 1.0) A_2) A_1 S_5 L_3 ?x600 L_2) 0.0)))
 (let (($x16572 (<= (+ (* (- 2.0) A_2) (* 2.0 B) S_4 S_0 (* 2.0 L_2)) 0.0)))
 (let (($x140635 (or $x1031 (<= (+ (* (- 1.0) A_0) ?x12204 (* 4.0 S_3) L_0) 0.0))))
 (let ((?x1526 (* 2.0 B)))
 (let ((?x6650 (* 3.0 S_2)))
 (let ((?x1172 (* (- 1.0) A_0)))
 (let (($x139708 (or $x1031 (<= (+ ?x1642 ?x12204 ?x1643 S_2 ?x1145) 0.0) (<= (+ (* (- (/ 3.0 2.0)) S_5) (* (/ 5.0 2.0) S_2) ?x1145) 0.0))))
 (let (($x1521 (<= (+ A_2 (* (- 1.0) S_3) ?x587) 0.0)))
 (let (($x133611 (or $x1521 (<= (+ ?x473 S_5 L_3 (* (- 1.0) S_3) S_0) 0.0) (<= (+ ?x473 ?x1136 S_5 L_3 (* (- 2.0) S_3) ?x1137) 0.0))))
 (let (($x16585 (<= (+ A_4 ?x465 (* (- 2.0) A_2) S_5 B S_0 (* 2.0 L_2)) 0.0)))
 (let (($x376183 (or $x66 (<= (+ A_4 ?x465 ?x1152 ?x1136 ?x1137 S_5 ?x1526 ?x1153) 0.0) $x16585)))
 (let ((?x18020 (* (/ 2.0 3.0) S_1)))
 (let ((?x511 (* (- 1.0) S_3)))
 (let ((?x7256 (* (- (/ 1.0 3.0)) B)))
 (let ((?x16202 (* (/ 1.0 3.0) S_5)))
 (let ((?x57204 (* (- (/ 1.0 3.0)) A_5)))
 (let ((?x6877 (* (/ 1.0 3.0) A_4)))
 (let (($x375108 (or $x66 (<= (+ A_4 ?x465 ?x1152 S_5 ?x1526 (* 2.0 S_1) ?x1153) 0.0))))
 (let (($x4500 (<= (+ A_1 ?x522 ?x600) 0.0)))
 (let ((?x1119 (* 2.0 L_2)))
 (let ((?x1118 (* (- 2.0) A_2)))
 (let (($x378952 (or $x66 (<= (+ ?x473 (* (- 1.0) A_2) S_5 L_3 S_0 L_2 B) 0.0) (<= (+ ?x473 ?x1118 ?x1136 S_5 L_3 ?x1137 ?x1119 ?x1526) 0.0))))
 (let ((?x5566 (* (/ 1.0 2.0) S_5)))
 (let ((?x2791 (* (- (/ 1.0 2.0)) A_5)))
 (let ((?x27808 (* (/ 1.0 2.0) A_4)))
 (let (($x52915 (<= (+ ?x27808 ?x2791 ?x5566 ?x2753 ?x511 ?x1832) 0.0)))
 (let (($x43505 (<= (+ A_4 ?x465 ?x1136 ?x1137 S_5 (* (- 1.0) B) (* (- 3.0) S_3)) 0.0)))
 (let ((?x2374 (* 2.0 S_0)))
 (let ((?x5270 (* (- 2.0) S_2)))
 (let ((?x617 (* (- 1.0) B)))
 (let ((?x477 (* (- 1.0) A_2)))
 (let (($x380961 (or $x4500 (<= (+ A_4 ?x465 ?x477 S_5 L_2 ?x617 ?x5270 ?x2374) 0.0))))
 (let ((?x7132 (* (/ 3.0 4.0) S_0)))
 (let ((?x5057 (* (- (/ 1.0 4.0)) B)))
 (let ((?x6048 (* (/ 1.0 4.0) S_5)))
 (let ((?x5999 (* (- (/ 1.0 4.0)) A_5)))
 (let ((?x52914 (* (/ 1.0 4.0) A_4)))
 (let ((?x5529 (* (- (/ 1.0 2.0)) L_1)))
 (let ((?x5539 (* (- (/ 1.0 2.0)) S_4)))
 (let ((?x5531 (* (/ 1.0 2.0) A_1)))
 (let ((?x469 (* (- 1.0) A_4)))
 (let (($x23853 (<= (+ ?x469 A_2 S_5 L_3 (* (- 1.0) S_4) ?x587) 0.0)))
 (let (($x1517 (<= (+ A_3 (* (- 1.0) L_3) (* (- 1.0) S_4)) 0.0)))
 (let (($x169112 (or $x1517 $x23853 (<= (+ ?x469 S_5 L_3 (* (- (/ 1.0 3.0)) S_4) ?x17487) 0.0) (<= (+ ?x469 ?x5531 S_5 L_3 ?x5539 ?x5529) 0.0))))
 (let ((?x7101 (* (/ 1.0 4.0) S_0)))
 (let ((?x500 (* (- 1.0) S_4)))
 (let ((?x4191 (* (- (/ 3.0 4.0)) B)))
 (let ((?x3596 (* (/ 3.0 4.0) S_5)))
 (let ((?x3404 (* (- (/ 3.0 4.0)) A_5)))
 (let ((?x51263 (* (/ 3.0 4.0) A_4)))
 (let (($x51409 (<= (+ ?x51263 ?x3404 ?x3596 ?x4191 ?x500 ?x7101) 0.0)))
 (let (($x48064 (<= (+ A_4 ?x465 ?x5531 ?x5529 S_5 ?x617 (* (- (/ 3.0 2.0)) S_4)) 0.0)))
 (let (($x21488 (<= (+ A_4 ?x465 A_2 S_5 ?x587 ?x617 (* (- 2.0) S_4)) 0.0)))
 (let (($x133190 (<= (+ ?x473 A_2 ?x587 L_3 B) (- 5.0))))
 (let (($x380955 (or $x76 $x133190 (<= (+ ?x473 A_1 ?x600 L_3 B) (- 10.0)) (<= (+ (* (- (/ 1.0 3.0)) A_3) ?x17487 (* (/ 1.0 3.0) L_3) ?x7247) (- 5.0)))))
 (let ((?x10358 (* (- (/ 1.0 2.0)) L_2)))
 (let ((?x5752 (* (- (/ 1.0 2.0)) S_5)))
 (let ((?x10564 (* (/ 1.0 2.0) A_2)))
 (let (($x9729 (<= (+ A_3 ?x1172 (* (- 1.0) S_5) (* (- 1.0) L_3) S_1 L_0) 0.0)))
 (let (($x380584 (or $x1031 $x9729 (<= (+ ?x1172 (* (- (/ 1.0 3.0)) S_5) (* (/ 4.0 3.0) S_1) L_0) 0.0) (<= (+ ?x10564 ?x1172 ?x5752 ?x10358 S_1 L_0) 0.0))))
 (let (($x5032 (<= (+ A_2 ?x500 ?x587) (- 5.0))))
 (let (($x168224 (or $x1517 $x5032 (<= (+ ?x5531 ?x5529 ?x5539) (- 5.0)) (<= (+ (* (- (/ 1.0 3.0)) S_4) ?x17487) (- 5.0)))))
 (let (($x126744 (or $x76 (<= (+ ?x473 (* 2.0 S_1) ?x1145 L_3 B) 0.0) (<= (+ ?x3211 ?x1114 ?x4472 ?x1115 S_1 ?x1145 ?x1526) 0.0))))
 (let (($x178708 (or $x1521 (<= (+ A_4 ?x465 ?x473 S_5 L_3 ?x617 ?x511 S_1) 0.0))))
 (let (($x41661 (<= (+ ?x473 ?x481 L_1 (* 2.0 S_2) L_3 B) 0.0)))
 (let (($x9846 (<= (+ ?x1511 ?x1495 ?x1790 A_1 ?x1791 ?x600 ?x1792) 0.0)))
 (let (($x4652 (<= (+ ?x1790 ?x1114 S_5 ?x1115 ?x1792 ?x2266) 0.0)))
 (let ((?x3288 (* (- 3.0) L_2)))
 (let ((?x489 (* (- 1.0) S_5)))
 (let ((?x1141 (* 2.0 L_1)))
 (let ((?x1140 (* (- 2.0) A_1)))
 (let ((?x3073 (* 3.0 A_2)))
 (let (($x10381 (<= (+ A_3 A_2 ?x481 ?x489 (* (- 1.0) L_3) L_1 ?x587 ?x617) 0.0)))
 (let ((?x15309 (* (- (/ 5.0 2.0)) L_2)))
 (let ((?x15327 (* (- (/ 5.0 2.0)) B)))
 (let ((?x15315 (* (- (/ 3.0 2.0)) S_5)))
 (let ((?x15317 (* (/ 5.0 2.0) A_2)))
 (let (($x376489 (or $x1031 (<= (+ ?x1642 A_2 ?x12204 ?x1643 ?x617 ?x1145 ?x587) 0.0) (<= (+ ?x15317 ?x15315 ?x15327 ?x1145 ?x15309) 0.0))))
 (let ((?x3745 (* 4.0 B)))
 (let ((?x3424 (* 4.0 L_2)))
 (let ((?x1146 (* (- 3.0) L_1)))
 (let ((?x1144 (* 3.0 A_1)))
 (let ((?x3433 (* (- 4.0) A_2)))
 (let ((?x6759 (* (/ 3.0 2.0) S_0)))
 (let (($x16836 (<= (+ (* (- (/ 5.0 2.0)) A_2) S_5 ?x6759 (* (/ 5.0 2.0) L_2) (* (/ 5.0 2.0) B)) 0.0)))
 (let (($x154285 (<= (+ (* (/ 1.0 3.0) A_1) (* (- (/ 1.0 3.0)) S_5) ?x7256 (* (- (/ 1.0 3.0)) L_1)) (- 5.0))))
 (let (($x3092 (<= (+ A_4 ?x465 ?x473 ?x481 S_5 L_3 S_0 L_1) 0.0)))
 (let (($x32422 (<= (+ (* (/ 1.0 3.0) A_3) ?x522 (* (/ 2.0 3.0) S_0) (* (- (/ 1.0 3.0)) L_3) ?x7256) 0.0)))
 (let (($x148734 (<= 0.0 (+ A_3 ?x1118 A_1 ?x600 ?x1119 (* (- 1.0) L_3) (* (- 2.0) B)))))
 (let (($x384263 (or $x76 (<= (+ (* (- 2.0) A_4) ?x473 A_1 ?x1791 ?x1792 ?x600) 0.0) $x148734)))
 (let (($x117277 (or $x1521 (<= (+ ?x469 S_5 L_3 (* (- (/ 1.0 2.0)) S_3) ?x1832) 0.0) (<= (+ ?x469 A_1 S_5 L_3 ?x511 ?x600) 0.0))))
 (let (($x113377 (or $x66 (<= (+ ?x469 ?x10560 S_5 L_3 ?x1832 ?x10563 ?x2758) 0.0) (<= (+ ?x469 ?x477 A_1 S_5 L_3 ?x600 L_2 B) 0.0))))
 (let (($x117260 (or $x1517 (<= (+ ?x1114 ?x1115 (* (- 2.0) S_4) S_1 ?x1145) 0.0) (<= (+ ?x500 (* 2.0 S_1) ?x1145) 0.0))))
 (let ((?x5998 (* (/ 1.0 2.0) L_3)))
 (let ((?x7988 (* (/ 3.0 2.0) S_1)))
 (let ((?x2831 (* (- (/ 1.0 2.0)) A_3)))
 (let (($x380059 (or $x76 (<= (+ ?x473 A_2 ?x1172 L_3 ?x587 S_1 B L_0) 0.0) (<= (+ ?x2831 ?x1172 ?x7988 ?x5998 ?x2758 L_0) 0.0))))
 (let (($x4137 (<= (+ ?x3211 A_2 ?x587 S_4 ?x4472 ?x1526) 0.0)))
 (let (($x94498 (or $x76 $x4137 (<= (+ ?x31259 S_4 ?x17487 ?x7248 (* (/ 4.0 3.0) B)) 0.0) (<= (+ ?x1790 A_1 ?x600 (* 2.0 S_4) ?x1792 ?x2266) 0.0))))
 (let (($x16193 (<= (+ (* (- (/ 1.0 3.0)) A_1) (* (/ 1.0 3.0) L_1) (* (- (/ 2.0 3.0)) S_5) S_3) 0.0)))
 (let ((?x4214 (* 4.0 L_1)))
 (let ((?x3527 (* 3.0 S_0)))
 (let ((?x3631 (* (- 4.0) A_1)))
 (let (($x56 (= L_1 L_0)))
 (let (($x63588 (<= (+ ?x1144 ?x1146 S_5 (* (- 4.0) S_3)) 0.0)))
 (let (($x8315 (<= (+ S_5 (* (- (/ 5.0 2.0)) S_3) ?x6759) 0.0)))
 (let (($x183377 (or $x66 (<= (+ ?x10560 ?x1832 ?x10563 ?x2758) (- 5.0)) (<= (+ ?x477 A_1 ?x600 L_2 B) (- 5.0)))))
 (let (($x16198 (<= (+ (* (- (/ 2.0 3.0)) A_1) (* (/ 2.0 3.0) L_1) (* (- (/ 1.0 3.0)) S_5) S_2) 0.0)))
 (let (($x111761 (or $x1031 $x16198 (<= (+ A_3 ?x481 ?x489 (* (- 1.0) L_3) S_2 L_1) 0.0))))
 (let ((?x18032 (* (/ 1.0 3.0) S_1)))
 (let ((?x7267 (* (- (/ 2.0 3.0)) B)))
 (let ((?x16212 (* (/ 2.0 3.0) S_5)))
 (let ((?x57320 (* (- (/ 2.0 3.0)) A_5)))
 (let ((?x7233 (* (/ 2.0 3.0) A_4)))
 (let (($x30974 (<= (+ ?x477 (* (- 3.0) A_1) S_5 L_2 ?x3527 (* 3.0 L_1) ?x2266) 0.0)))
 (let (($x373510 (or $x56 (<= (+ A_4 ?x465 ?x477 ?x1140 S_5 L_2 B ?x2374 ?x1141) 0.0))))
 (let (($x36590 (<= (+ A_4 ?x465 A_2 S_5 (* (- 2.0) B) (* (- 2.0) S_4) ?x587) 0.0)))
 (let (($x21746 (<= (+ ?x1114 S_5 ?x1115 (* (- 3.0) S_4)) 0.0)))
 (let (($x164153 (or $x56 $x1031 (<= (+ A_3 ?x481 ?x489 (* (- 1.0) L_3) S_2 L_1 B) 0.0) $x41661)))
 (let (($x1427 (not $x66)))
 (let (($x163857 (or $x1517 $x21746 (<= (+ (* (/ 3.0 5.0) S_5) ?x500 (* (/ 2.0 5.0) S_0)) 0.0) (<= (+ A_1 ?x600 S_5 (* (- 2.0) S_4)) 0.0))))
 (let (($x21512 (<= (+ (* (- (/ 1.0 3.0)) A_1) (* (- (/ 2.0 3.0)) S_5) ?x7247 S_3 (* (/ 1.0 3.0) L_1)) 0.0)))
 (let (($x388877 (or $x1517 (<= (+ ?x3073 ?x1172 ?x1529 (* (- 2.0) S_4) ?x3288 L_0) 0.0))))
 (let ((?x17635 (* (/ 2.0 3.0) S_0)))
 (let (($x32143 (<= (+ (* (- (/ 5.0 3.0)) A_3) S_5 ?x17635 (* (/ 5.0 3.0) L_3) (* (/ 5.0 3.0) B)) 0.0)))
 (let (($x27304 (<= (+ (* (/ 1.0 2.0) A_3) ?x5531 (* (- (/ 1.0 2.0)) L_3) ?x511 ?x5529 ?x2753) 0.0)))
 (let (($x183769 (or $x1521 $x27304 (<= (+ (* (/ 2.0 3.0) A_3) ?x511 ?x17487 (* (- (/ 2.0 3.0)) L_3) ?x7267) 0.0))))
 (let ((?x4231 (+ (* (- 5.0) A_1) S_5 (* 4.0 S_0) (* 5.0 L_1) (* 5.0 B))))
 (let (($x93351 (or $x1517 (<= (+ (* (- (/ 1.0 2.0)) A_1) (* (/ 1.0 2.0) L_1) ?x5539 S_2) 0.0))))
 (let ((?x7290 (* (- (/ 5.0 3.0)) L_1)))
 (let ((?x7291 (* (- (/ 5.0 3.0)) B)))
 (let ((?x16218 (* (- (/ 2.0 3.0)) S_5)))
 (let ((?x7288 (* (/ 5.0 3.0) A_1)))
 (let (($x372852 (or $x1031 (<= (+ ?x1645 A_1 ?x656 ?x1205 ?x1145 ?x600 ?x617) 0.0) (<= (+ ?x7288 ?x16218 ?x7291 ?x1145 ?x7290) 0.0) (<= (+ A_2 A_1 ?x489 ?x587 ?x617 ?x1145 ?x600) 0.0))))
 (let ((?x7278 (* (- (/ 4.0 3.0)) L_1)))
 (let ((?x7279 (* (- (/ 4.0 3.0)) B)))
 (let ((?x16200 (* (- (/ 1.0 3.0)) S_5)))
 (let ((?x7277 (* (/ 4.0 3.0) A_1)))
 (let (($x172898 (or $x1031 (<= (+ A_3 A_1 ?x489 (* (- 1.0) L_3) ?x533 ?x600 ?x617) 0.0) (<= (+ ?x7277 ?x16200 ?x7279 ?x533 ?x7278) 0.0) (<= (+ ?x10564 A_1 ?x5752 ?x10358 ?x617 ?x533 ?x600) 0.0))))
 (let (($x386969 (or $x1517 (<= (+ ?x1114 S_5 (* (- 3.0) S_4) ?x1115 (* (- 2.0) B)) 0.0))))
 (let (($x172665 (or $x1521 (<= (+ A_4 ?x465 ?x1136 S_5 ?x1529 (* (- 3.0) S_3) ?x1137) 0.0))))
 (let (($x160942 (or $x56 $x76 (<= (+ ?x473 ?x481 (* 2.0 S_2) L_1 L_3 ?x1526) 0.0))))
 (let (($x5456 (<= (+ ?x1136 ?x500 ?x1145 ?x1137 (* (- 2.0) B)) 0.0)))
 (let (($x185837 (or $x1517 $x5456 (<= (+ ?x1114 A_1 (* (- 2.0) S_4) ?x1115 ?x1145 ?x600 ?x617) 0.0))))
 (let (($x21704 (<= (+ A_4 ?x465 ?x473 ?x477 A_1 S_5 L_3 ?x617 ?x600 L_2) 0.0)))
 (let (($x145800 (not (<= 0.0 (+ L_2 (* (- 1.0) L_3))))))
 (let (($x179743 (or $x1521 (<= (+ A_3 (* (- (/ 3.0 2.0)) S_3) ?x1832 ?x587 ?x617) 0.0) $x27304 $x145800)))
 (let (($x1742 (<= (+ A_3 A_1 ?x1172 ?x489 (* (- 1.0) L_3) ?x600 ?x617 L_0) 0.0)))
 (let (($x191359 (or $x1031 $x1742 (<= (+ ?x7277 ?x1172 ?x16200 ?x7279 ?x7278 L_0) 0.0) (<= (+ ?x10564 A_1 ?x1172 ?x5752 ?x10358 ?x617 ?x600 L_0) 0.0))))
 (let (($x175085 (or $x76 $x4137 (<= (+ ?x1790 A_1 (* 2.0 S_4) ?x600 ?x1792 ?x1526) 0.0))))
 (let (($x5156 (<= (+ ?x473 ?x1144 (* (- 2.0) S_1) ?x1146 L_3 (* (- 2.0) B)) 0.0)))
 (let (($x386014 (or $x76 $x5156 (<= (+ ?x473 A_2 A_1 L_3 ?x587 ?x533 ?x600) 0.0))))
 (let (($x16568 (<= (+ (* (- (/ 3.0 2.0)) A_2) (* (/ 3.0 2.0) B) S_3 ?x1832 (* (/ 3.0 2.0) L_2)) 0.0)))
 (let (($x388253 (or $x1031 (<= (+ ?x1645 A_2 ?x656 ?x1205 ?x617 ?x533 ?x587) 0.0) (<= (+ ?x1114 ?x489 (* (- 2.0) B) ?x533 ?x1115) 0.0))))
 (let (($x177378 (or $x76 (<= (+ ?x473 ?x1136 ?x1145 ?x1137 L_3 ?x617) 0.0) (<= (+ ?x3211 ?x1114 A_1 ?x4472 ?x1115 ?x1145 ?x600 B) 0.0))))
 (let (($x12896 (<= (+ ?x1790 (* 4.0 A_2) ?x617 ?x1145 (* (- 4.0) L_2) ?x1792) 0.0)))
 (let (($x74547 (or $x1521 (<= (+ ?x473 L_3 S_4 (* (- (/ 1.0 2.0)) S_3) ?x1832) 0.0) (<= (+ ?x473 A_1 L_3 S_4 ?x511 ?x600) 0.0))))
 (let (($x12982 (<= (+ A_4 ?x465 ?x473 S_5 L_3 ?x617 (* (- (/ 1.0 2.0)) S_3) ?x1832) 0.0)))
 (let (($x173670 (or $x1521 $x12982 (<= (+ A_4 ?x465 ?x473 A_1 S_5 L_3 ?x617 ?x511 ?x600) 0.0))))
 (let (($x34209 (<= (+ A_1 ?x511 ?x600) (- 5.0))))
 (let (($x63718 (or $x1521 (<= (+ (* (/ 1.0 2.0) S_4) ?x511 ?x1832) 0.0) (<= (+ ?x1136 ?x1137 S_4 (* (- 3.0) S_3)) 0.0))))
 (let (($x68493 (or $x1517 (<= (+ A_2 ?x1172 ?x587 ?x500 S_1 L_0) 0.0) (<= (+ ?x1172 ?x5539 ?x7988 L_0) 0.0))))
 (let (($x26413 (<= (+ A_4 ?x465 ?x473 A_1 S_5 L_3 (* (- 2.0) B) ?x511 ?x600) 0.0)))
 (let (($x186460 (or $x4500 (<= (+ A_4 ?x465 ?x473 S_5 L_3 ?x617 ?x522 S_0) 0.0))))
 (let (($x179516 (or $x1521 (<= (+ (* (/ 1.0 2.0) A_3) ?x511 ?x6169 (* (- (/ 1.0 2.0)) L_3) ?x2753) 0.0))))
 (let (($x174935 (or $x1517 (<= (+ A_1 S_5 (* (- 2.0) S_4) ?x600 ?x617) 0.0) $x21746)))
 (let (($x60575 (<= (+ A_3 ?x489 (* (- 1.0) L_3) ?x617) (- 5.0))))
 (let (($x21533 (<= (+ (* (- (/ 2.0 3.0)) A_1) ?x16200 (* (/ 2.0 3.0) B) S_2 (* (/ 2.0 3.0) L_1)) 0.0)))
 (let ((?x574 (* (- 1.0) L_3)))
 (let ((?x2274 (* 3.0 L_1)))
 (let ((?x2308 (* (- 3.0) A_1)))
 (let (($x1822 (not $x56)))
 (let (($x181235 (or $x66 $x1822 (<= (+ A_3 ?x1118 A_1 ?x1119 ?x574 (* (- 1.0) L_0)) 0.0))))
 (let (($x431 (<= 0.0 (+ ?x473 ?x1114 ?x481 L_3 L_1 ?x1115 ?x617))))
 (let (($x427 (not $x431)))
 (let (($x36432 (<= (+ (* 4.0 A_2) ?x4233 (* (- 3.0) S_4) ?x1145 (* (- 4.0) L_2)) 0.0)))
 (let (($x43617 (or $x1521 (<= (+ ?x473 S_5 L_3 (* (- 2.0) S_3) (* 2.0 S_1)) 0.0))))
 (let ((?x1505 (* (- 2.0) B)))
 (let (($x5150 (<= (+ ?x473 ?x1144 (* (- 2.0) A_0) ?x1146 L_3 ?x1505 (* 2.0 L_0)) 0.0)))
 (let (($x179264 (or $x76 $x5150 (<= (+ ?x473 A_2 A_1 ?x1172 L_3 ?x587 ?x600 L_0) 0.0))))
 (let (($x40018 (or $x66 (<= (+ ?x473 ?x1118 S_5 L_3 (* 2.0 S_1) ?x1119 ?x1526) 0.0))))
 (let (($x5461 (<= (+ (* (/ 3.0 2.0) A_1) ?x5539 ?x533 (* (- (/ 3.0 2.0)) L_1) (* (- (/ 3.0 2.0)) B)) 0.0)))
 (let (($x177211 (or $x56 $x427 $x1031 (<= (+ A_3 A_2 ?x481 ?x489 ?x574 ?x587 L_1) 0.0))))
 (let (($x180732 (or $x1521 (<= (+ A_3 A_1 (* (- 2.0) S_3) ?x600 ?x574 ?x1505) 0.0))))
 (let (($x379771 (or $x1521 (<= (+ A_3 A_1 (* (- 2.0) S_3) ?x600 ?x587 ?x1505) 0.0) $x145800)))
 (let (($x190808 (or $x1521 (<= (+ ?x473 ?x1136 S_5 L_3 (* (- 2.0) S_3) ?x1137 ?x1505) 0.0))))
 (let (($x20986 (<= (+ A_4 ?x465 ?x5531 S_5 (* (- (/ 3.0 2.0)) B) (* (- (/ 3.0 2.0)) S_4) ?x5529) 0.0)))
 (let (($x150378 (or $x56 $x1517 (<= (+ (* (- (/ 1.0 2.0)) A_1) ?x5539 S_2 (* (/ 1.0 2.0) L_1) ?x2758) 0.0))))
 (let ((?x3155 (* (- (/ 3.0 2.0)) B)))
 (let ((?x5418 (* (- (/ 3.0 2.0)) L_1)))
 (let ((?x5498 (* (/ 3.0 2.0) A_1)))
 (let (($x179750 (or $x1517 (<= (+ ?x5498 ?x1172 ?x5539 ?x5418 ?x3155 L_0) 0.0) (<= (+ A_2 A_1 ?x1172 ?x500 ?x587 ?x600 ?x617 L_0) 0.0))))
 (let (($x173800 (or $x1517 $x5456 (<= 0.0 (+ ?x477 ?x5531 (* (/ 1.0 2.0) S_4) ?x5529 L_2 ?x2753)))))
 (let (($x22797 (or $x66 (<= (+ ?x477 ?x1172 B (* 2.0 S_1) L_2 L_0) 0.0))))
 (let (($x381501 (or $x1521 $x1822 (<= (+ ?x1136 S_4 (* (- 3.0) S_3) ?x1505 (* (- 2.0) L_0)) 0.0))))
 (let (($x4617 (<= (+ A_3 ?x500 ?x574 ?x617) 0.0)))
 (let (($x15699 (or $x1031 (<= (+ ?x1645 ?x1172 ?x656 ?x1205 S_2 L_0) 0.0) (<= (+ ?x1172 ?x489 (* 2.0 S_2) L_0) 0.0))))
 (let (($x385413 (or $x1031 (<= (+ A_3 A_2 ?x489 ?x574 ?x617 ?x522 ?x587) 0.0) (<= (+ (* (/ 3.0 2.0) A_2) ?x5752 ?x3155 ?x522 (* (- (/ 3.0 2.0)) L_2)) 0.0))))
 (let (($x193605 (or $x1031 (<= (+ ?x1645 A_2 ?x1172 ?x656 ?x1205 ?x617 ?x587 L_0) 0.0) (<= (+ ?x1114 ?x1172 ?x489 ?x1505 ?x1115 L_0) 0.0))))
 (let (($x439 (<= 0.0 (+ ?x600 L_0))))
 (let (($x189241 (or $x66 (<= (+ A_4 ?x465 ?x473 ?x477 S_5 L_3 S_1 L_2) 0.0))))
 (let (($x1961 (<= (+ A_1 ?x511 ?x600 ?x617) (- 5.0))))
 (let (($x1131 (<= (+ A_1 ?x522 ?x600 ?x617) 0.0)))
 (let (($x1125 (<= (+ A_2 ?x511 ?x587 ?x617) 0.0)))
 (let (($x128 (>= S_1 S_0)))
 (let (($x131 (>= S_2 S_1)))
 (let (($x134 (>= S_3 S_2)))
 (let (($x137 (>= S_4 S_3)))
 (let (($x140 (>= S_5 S_4)))
 (let (($x142 (>= A_1 A_0)))
 (let (($x143 (>= A_2 A_1)))
 (let (($x144 (>= A_3 A_2)))
 (let (($x145 (>= A_4 A_3)))
 (let (($x146 (>= A_5 A_4)))
 (and $x146 $x145 $x144 $x143 $x142 $x140 $x137 $x134 $x131 $x128 (or (not $x439) $x56) $x1125 $x1131 (or $x66 (<= (+ ?x477 ?x1136 ?x1172 ?x1137 L_2 ?x617 L_0) 0.0)) (or $x66 (<= (+ ?x477 ?x1136 ?x533 ?x1137 L_2 ?x617) 0.0)) (or $x66 (<= (+ ?x477 S_2 L_2 B) 0.0)) (or $x1521 (<= (+ ?x1136 ?x511 ?x533 ?x1137 ?x1505) 0.0)) (or $x66 (not (<= 0.0 (+ L_1 ?x587)))) (or $x56 (<= (+ ?x481 S_1 L_1 B) 0.0)) (or $x56 (<= (+ ?x481 S_0 L_1 B) (- 5.0))) (or $x56 (<= (+ ?x469 ?x481 S_5 L_3 S_0 L_1 B) 0.0)) (or $x56 $x431 (<= (+ ?x1114 ?x481 ?x500 L_1 ?x1115 ?x617) 0.0)) (or $x56 (<= (+ ?x1114 ?x481 ?x500 L_1 ?x1115 ?x617) 0.0) $x1517) (or $x56 (<= (+ A_2 ?x1140 S_0 ?x1141 ?x587 B) 0.0)) (or $x66 (<= (+ ?x1118 ?x1144 ?x1145 ?x1146 ?x1119 ?x617) 0.0)) (or $x66 (<= (+ ?x477 A_1 ?x600 L_2) (- 5.0))) (or $x66 $x76 $x439 (= (+ ?x473 ?x1114 ?x481 L_3 L_1 ?x1115) 0.0)) (or $x76 (<= (+ ?x473 S_3 L_3 B) 0.0)) $x1961 (or $x1521 (<= (+ ?x1136 ?x1172 ?x511 ?x1137 ?x1505 L_0) 0.0)) (or $x1521 (<= (+ ?x1144 (* (- 2.0) S_3) ?x1145 ?x1146 ?x1529) 0.0)) (or $x1517 (<= (+ ?x500 S_2) (- 5.0))) (or $x56 $x76 $x1427 (<= (+ ?x473 ?x1114 ?x481 ?x600 L_3) 0.0)) (or $x1517 (<= (+ S_5 (* (- 3.0) S_4) (* 2.0 S_2)) 0.0)) (or $x76 $x145800) (or $x56 (<= (+ ?x1140 S_2 S_0 ?x1141 ?x1526) 0.0)) (or $x66 (<= (+ ?x1152 ?x1136 S_4 ?x1137 ?x1153 B) 0.0)) (or $x56 (<= (+ ?x473 ?x481 L_3 S_4 S_0 L_1 B) 0.0)) (or $x66 (<= 0.0 (+ ?x473 ?x1114 ?x481 L_1 ?x587)) $x145800) (or $x56 (<= (+ A_3 ?x2308 ?x2374 ?x2274 ?x587 ?x1526) 0.0) $x145800) (or $x56 $x1031 (<= (+ ?x1642 ?x481 ?x656 L_1 ?x1643 ?x1505) 0.0)) (or $x1031 (<= (+ ?x1645 ?x477 ?x489 L_2 ?x1205 ?x1505) 0.0)) (or $x56 $x3092) $x189241 (or $x1521 (<= (+ ?x1172 ?x511 (* 2.0 S_1) L_0) 0.0)) (or $x1521 (<= (+ ?x473 L_3 S_4 ?x511 S_1) 0.0)) (or $x431 $x439 $x1031 (<= (+ ?x3073 ?x1140 ?x489 ?x1141 ?x3288 ?x617) 0.0)) $x193605 $x385413 $x15699 (or $x4500 (<= (+ ?x10564 ?x522 ?x1832 ?x10358 ?x2753) 0.0)) (or $x76 (<= (+ ?x473 ?x1114 ?x617 ?x522 ?x1115 L_3) 0.0)) (or $x66 $x1031 (<= (+ ?x1645 ?x477 ?x489 ?x617 L_2 ?x1205) 0.0)) (or $x66 $x431 (<= (+ ?x1645 ?x1152 B S_0 ?x1153 ?x1205) 0.0)) (or $x76 (<= (+ ?x3211 ?x3073 ?x1172 ?x617 ?x3288 ?x4472 L_0) 0.0)) (or $x66 $x1031 (<= (+ ?x10560 ?x5752 ?x2758 S_3 ?x10563) 0.0)) (or $x76 (<= (+ ?x3211 ?x3073 ?x617 ?x533 ?x3288 ?x4472) 0.0)) (or $x66 (<= (+ A_3 ?x1118 B S_1 ?x1119 ?x574) 0.0)) (or $x66 (<= (+ ?x1118 A_1 S_3 ?x600 ?x1119 B) 0.0)) $x4617 $x381501 $x22797 (or $x66 $x1033) $x173800 $x179750 $x150378 (or $x1521 (<= (+ ?x469 A_1 S_5 L_3 ?x511 ?x600 ?x617) 0.0)) (or $x56 (<= (+ ?x473 ?x1140 S_5 L_3 ?x2374 ?x1141 ?x1526) 0.0)) (or $x1521 (<= (+ ?x1144 S_5 (* (- 4.0) S_3) ?x1146 ?x1529) 0.0)) (or $x76 (<= (+ ?x473 A_2 ?x587 L_3) (- 5.0))) (or $x76 (<= (+ ?x473 L_3 S_2 B) (- 5.0))) (or $x1517 $x20986 $x21488) (or $x76 (<= (+ ?x3211 ?x4472 S_4 S_2 ?x1526) 0.0)) (or $x1031 (<= (+ ?x489 S_3) (- 5.0))) (or $x1521 (<= (+ ?x1136 S_4 (* (- 3.0) S_3) ?x1137 ?x1505) 0.0)) $x190808 (or $x1521 (<= (+ ?x473 A_1 L_3 S_4 ?x511 ?x600 ?x617) 0.0)) $x379771 $x180732 (or $x4500 (<= (+ ?x522 S_0) (- 5.0))) (or $x66 (<= (+ ?x473 ?x477 A_1 L_3 S_4 ?x600 L_2) 0.0)) $x177211 (or $x76 (<= (+ ?x3211 A_2 B S_4 ?x587 ?x4472) 0.0)) (or $x56 (<= (+ ?x2308 S_3 ?x2374 ?x2274 ?x2266) 0.0)) (or $x1517 $x5461 (<= (+ A_2 A_1 ?x500 ?x587 ?x533 ?x600 ?x617) 0.0)) (or $x66 (<= (+ ?x473 ?x1118 ?x1136 S_5 L_3 ?x1137 ?x1119) 0.0)) $x40018 (<= (+ A_2 ?x617 ?x500 ?x587) (- 5.0)) (or $x1517 (<= (+ (* (- 3.0) S_4) (* 4.0 S_2) ?x1145) 0.0)) (or $x4500 (<= (+ A_3 ?x477 L_2 ?x522 S_0 ?x574 ?x617) 0.0)) (or $x4500 (<= (+ ?x469 S_5 L_3 ?x522 S_0) 0.0)) (or $x66 (<= (+ ?x3433 ?x1144 S_5 ?x1146 ?x3424 B) 0.0)) (or $x66 (<= (+ A_4 ?x465 ?x1152 ?x1136 S_5 ?x1137 ?x1153) 0.0)) (or $x76 (<= (+ ?x1790 ?x1114 S_5 ?x1115 ?x1792 B) 0.0)) $x179264 $x43617 (or $x56 (<= (+ A_3 ?x477 ?x481 ?x574 L_2 S_0 L_1) 0.0)) (or $x1517 (<= (+ ?x1114 ?x481 L_1 ?x1505 ?x500 ?x1115) 0.0)) (or $x1517 $x36432) (or $x66 (<= (+ ?x477 B S_1 L_2) (- 5.0))) (or $x4500 (<= (+ ?x473 L_3 S_4 ?x522 S_0) 0.0)) (or $x4500 (<= (+ ?x477 L_2 S_4 ?x5270 ?x2374) 0.0)) (or $x1517 (<= (+ ?x1114 ?x1505 ?x500 ?x522 ?x1115) 0.0)) (or $x76 $x427 (= (+ ?x473 ?x1114 ?x481 L_1 ?x617 ?x1115 L_3) 0.0)) $x181235 (or $x56 (<= (+ A_3 ?x2308 ?x2374 ?x2274 ?x574 ?x1526) 0.0)) (or $x76 $x4652 (<= (+ ?x3211 A_1 S_5 ?x600 ?x4472 B) 0.0)) (or $x66 $x21704) (or $x56 $x1031 (<= (+ ?x1642 ?x481 ?x656 ?x1643 L_1 B) 0.0) $x21533) (or $x145800 (<= (+ A_3 ?x489 ?x617 ?x587) (- 5.0))) $x60575 $x174935 (or $x56 (<= (+ ?x477 ?x481 L_2 B S_3 S_0 L_1) 0.0)) (or $x1031 (<= (+ ?x10560 ?x5752 ?x10563 S_3) 0.0)) (or $x1521 (<= (+ (* (/ 1.0 3.0) S_4) ?x511 ?x18020) 0.0)) $x179516 (or $x1521 (<= (+ ?x6048 ?x511 (* (/ 3.0 4.0) S_1)) 0.0)) $x186460 (or $x1521 $x26413) $x68493 $x63718 (or $x1521 $x34209 (<= (+ (* (- (/ 1.0 2.0)) S_3) ?x1832) (- 5.0))) (or $x4500 (<= (+ ?x473 S_5 L_3 ?x5270 ?x2374) 0.0)) $x173670 $x74547 (or $x76 $x12896) $x177378 (or $x4500 (<= (+ ?x477 L_2 S_3 ?x522 S_0) 0.0)) $x388253 (or $x66 (<= (+ ?x1118 A_1 ?x600 ?x1526 S_3 ?x1119) 0.0) $x16568) $x386014 (or $x56 (<= (+ ?x477 ?x1140 L_2 ?x1526 S_4 ?x2374 ?x1141) 0.0)) $x175085 $x191359 (or $x1521 (<= (+ (* (- 2.0) S_3) (* 3.0 S_1) ?x1145) 0.0)) (or $x66 (<= (+ ?x1152 ?x2266 S_4 (* 2.0 S_1) ?x1153) 0.0)) $x179743 (or $x76 $x4137 (<= (+ ?x9439 S_4 ?x6169 ?x26504 (* (/ 3.0 2.0) B)) 0.0)) (or $x76 $x10191 $x21704) $x185837 $x160942 (or $x76 $x4652 (<= (+ ?x3211 S_5 S_1 ?x4472 ?x1526) 0.0)) (or $x4500 (<= (+ (* (/ 1.0 3.0) S_3) ?x522 ?x17635) 0.0)) (or $x1031 (<= (+ ?x1645 ?x489 ?x511 ?x1205 ?x1505) 0.0)) (or $x1031 $x1730 $x21964 (<= (+ ?x16200 ?x18032) (- 5.0))) (or $x1521 (<= (+ ?x511 S_1) (- 5.0))) (or $x1031 $x1730 (<= (+ ?x5752 (* (/ 1.0 2.0) S_2)) (- 5.0))) $x172665 (or $x1517 (<= (+ ?x469 ?x5531 S_5 L_3 ?x5539 ?x5529 ?x2753) 0.0) $x23853) (or $x56 (<= (+ ?x3631 S_4 ?x3527 ?x4214 ?x3745) 0.0)) (or $x76 $x21840 (not $x148734)) $x386969 $x172898 $x372852 (or $x76 (<= (+ ?x473 A_1 ?x600 L_3) (- 10.0))) $x93351 (or $x4500 (<= (+ ?x477 S_5 L_2 (* (- 3.0) S_2) ?x3527) 0.0)) (or $x1517 (<= (+ ?x5531 ?x5539 ?x5529 ?x2753) (- 5.0))) (or $x56 (<= ?x4231 0.0)) $x183769 (or $x76 $x4652 $x32143 (<= (+ ?x3211 A_1 ?x600 S_5 ?x4472 ?x1526) 0.0)) $x388877 (or $x4500 (<= (+ (* (/ 1.0 4.0) S_4) ?x522 ?x7132) 0.0)) (or $x56 $x1031 $x21512) (or $x1031 (<= (+ ?x12110 ?x1172 ?x12204 ?x11030 ?x4233 L_0) 0.0)) (or $x1031 (<= (+ ?x10564 ?x5752 ?x2753 ?x10358) (- 5.0))) (or $x76 (<= (+ A_4 ?x465 ?x3211 A_2 S_5 ?x587 ?x4472) 0.0)) (or $x66 (<= (+ ?x1118 ?x1526 (* 3.0 S_1) ?x1145 ?x1119) 0.0)) $x163857 (or $x1517 (<= (+ ?x5566 ?x500 ?x6169) 0.0) $x21746) (or $x1517 (<= (+ ?x1172 (* (- 2.0) S_4) ?x6650 L_0) 0.0)) (or $x1517 (<= (+ ?x469 S_5 L_3 ?x500 S_2) 0.0)) (or $x1427 $x1517 (<= (+ ?x27808 ?x2791 ?x10564 ?x5566 ?x617 ?x500 ?x5529) 0.0)) $x164153 (or $x1517 $x21746 $x48064 $x51409) (or $x1521 $x8315 $x43505) (or $x1517 $x36590) (or $x1517 $x5032 (<= (+ ?x5539 ?x6169) (- 5.0))) (or $x76 $x133190 (<= (+ ?x2831 ?x6169 ?x5998 ?x2758) (- 5.0))) $x373510 (or $x56 $x30974) (or $x1517 $x21488 (<= (+ ?x7233 ?x57320 ?x16212 ?x7267 ?x500 ?x18032) 0.0)) $x111761 (or $x1517 (<= (+ ?x469 A_2 S_5 L_3 ?x500 ?x587 ?x617) 0.0)) $x183377 (or $x1521 $x8315 $x63588) (or $x76 (<= (+ ?x469 ?x473 A_2 S_5 ?x4472 ?x587) 0.0)) (or $x1517 (<= (+ ?x3073 ?x1529 (* (- 2.0) S_4) ?x533 ?x3288) 0.0)) (or $x56 (<= (+ A_4 ?x465 ?x3631 S_5 ?x2266 ?x3527 ?x4214) 0.0)) (or $x1031 $x16193) $x94498 $x380059 (or $x1521 $x52915 $x63588) (or $x66 (<= (+ ?x1118 ?x1526 S_3 S_1 ?x1119) 0.0)) $x117260 $x113377 $x117277 $x384263 (or $x4500 $x32422) (or $x1517 (<= (+ (* (- 2.0) S_4) ?x6650 ?x533) 0.0)) (or $x76 $x3092 $x10191 $x50633) (or $x1031 $x1730 $x154285) (or $x66 (<= (+ ?x3433 S_5 (* 3.0 S_1) ?x3424 ?x3745) 0.0)) (or $x66 $x16836 (<= (+ ?x3433 ?x1144 ?x1146 S_5 ?x3424 ?x3745) 0.0)) $x376489 (or $x1031 $x10381 (<= (+ ?x3073 ?x1140 ?x1141 ?x489 ?x1529 ?x3288) 0.0)) (or $x76 $x4652 $x9846) (or $x76 $x41661) (or $x76 $x9846 $x10191) $x178708 (or $x1517 $x23853 (<= (+ ?x469 S_5 L_3 ?x5539 ?x6169) 0.0)) $x126744 (or $x76 (<= (+ ?x1790 S_5 (* 2.0 S_2) ?x1792 ?x2266) 0.0)) (or $x66 (<= (+ ?x473 ?x477 L_3 B S_4 S_1 L_2) 0.0)) (or $x66 (<= (+ ?x469 ?x477 S_5 L_3 S_1 L_2 B) 0.0)) $x168224 $x380584 (or $x1517 (<= (+ ?x27808 ?x2791 ?x5566 ?x2753 ?x500 (* (/ 1.0 2.0) S_2)) 0.0)) $x380955 (or $x76 (<= (+ A_4 ?x465 ?x3211 S_5 B S_2 ?x4472) 0.0)) (or $x1517 $x21488 $x48064 $x51409) $x169112 (or $x4500 (<= (+ ?x52914 ?x5999 ?x6048 ?x5057 ?x522 ?x7132) 0.0)) $x380961 (or $x1521 $x43505 $x52915) $x378952 (or $x4500 (<= (+ (* (/ 1.0 5.0) S_5) ?x522 (* (/ 4.0 5.0) S_0)) 0.0)) (or $x1521 (<= (+ ?x469 S_5 L_3 ?x511 S_1) 0.0)) $x375108 (or $x1521 (<= (+ ?x6877 ?x57204 ?x16202 ?x7256 ?x511 ?x18020) 0.0)) $x376183 $x133611 $x139708 (or $x76 (<= (+ ?x3211 ?x4472 ?x6650 ?x533 ?x1526) 0.0)) (or $x76 (<= (+ ?x3211 ?x1172 ?x4472 ?x6650 ?x1526 L_0) 0.0)) $x140635 (or $x66 $x13994 $x16572) (or $x76 $x1033 $x21840 $x68596) (or $x76 $x21840 $x106497) (or $x66 $x10565 $x13994) (or $x66 $x9117 $x10565) (or $x1031 (<= (+ ?x1642 ?x481 L_1 ?x656 ?x1643 ?x1529) 0.0)) $x373594 $x143094 (or $x76 $x10191 (<= (+ A_4 ?x465 ?x9439 S_5 ?x2758 ?x6169 ?x26504) 0.0)) $x144570 (or $x1031 (<= (+ ?x12110 ?x12204 ?x533 ?x11030 ?x4233) 0.0)) (or $x1031 (<= (+ ?x1642 ?x656 ?x522 ?x1643 ?x1529) 0.0)) (or $x1031 (<= (+ ?x12767 ?x16632 ?x1145 ?x60448 ?x4250) 0.0)) $x174094 (or $x76 $x21840 $x68596 $x109647) $x389329 $x141190 (or $x76 $x120301) (or $x76 $x10191 $x50633 $x87989) $x172519 $x146879 $x148236 $x664 $x39 (<= (+ ?x477 S_2 L_2) 0.0) (<= (+ ?x469 L_3 S_4) 0.0) (<= (+ ?x465 S_5 L_3) 0.0) (<= (+ ?x1172 S_0 L_0) 0.0) (<= (+ ?x481 S_1 L_1) 0.0) (<= (+ ?x473 L_3 S_3) 0.0)))))))))))))))))))))))))))))))))))))))))))))))))))))))))))))))))))))))))))))))))))))))))))))))))))))))))))))))))))))))))))))))))))))))))))))))))))))))))))))))))))))))))))))))))))))))))))))))))))))))))))))))))))))))))))))))))))))))))))))))))))))))))))))))))))))))))))))))))))))))))))))))))))))
(check-sat)
